proyfinal/src/viki/013/andrea/andrea-localstore/experimentInOfficeAgust.take6/worker_1/823247bb-d1f2-424c-9447-dbf1b51596d4.als.cnf.out
Reading from standard input... Use '--help' for help.
============================[ Problem Statistics ]=============================
|                                                                             |
|  Number of variables:         87638                                         |
|  Number of clauses:          161767                                         |
|  Parse time:                   0.03 s                                       |
|                                                                             |
============================[ Search Statistics ]==============================
| Conflicts |          ORIGINAL         |          LEARNT          | Progress |
|           |    Vars  Clauses Literals |    Limit  Clauses Lit/Cl |          |
===============================================================================
|       100 |   63789   110345   275436 |    40459      100     29 | 27.213 % |
|       250 |   57679    91121   227926 |    44505      248     37 | 34.185 % |
|       475 |   57679    91121   227926 |    48956      473     61 | 34.185 % |
|       812 |   57679    91121   227926 |    53852      810     54 | 34.185 % |
|      1318 |   57679    91121   227926 |    59237     1316     50 | 34.185 % |
|      2077 |   56781    88097   220019 |    65160     1890     58 | 35.210 % |
|      3216 |   56764    88027   219857 |    71677     3021     52 | 35.229 % |
|      4924 |   56715    87754   219224 |    78844     4719     52 | 35.285 % |
|      7486 |   56607    87349   218270 |    86729     7263     58 | 35.408 % |
|     11330 |   55908    84466   211381 |    95402    10942     56 | 36.206 % |
|     17096 |   55814    84333   211068 |   104942    16692     58 | 36.313 % |
===============================================================================
restarts              : 73
conflicts             : 20810          (8994 /sec)
decisions             : 68029          (0.00 % random) (29403 /sec)
propagations          : 24043936       (10391927 /sec)
conflict literals     : 1180133        (48.00 % deleted)
Memory used           : 30.08 MB
CPU time              : 2.31371 s

UNSATISFIABLE
